1747 1479 10 0 1439
2085 1560 3 210 305
770 2463 3 672 747
697 1299 1 134 139
2416 1382 4 126 234
1200 1327 1 21 93
1026 1009 1 451 549
1934 573 3 799 909
1165 1774 3 152 199
490 1535 2 370 387
2265 1465 2 587 599
